! RHF 3-21G

# Title Card Required

* xyz 0 1
C                  0.00000000    0.00000000    0.00000000 # (H)(SLT)(   0)[     0]
O                 -1.20800000   -0.00000000   -0.00000000 # (H)(SLT)(   0)[     1]
O                  1.20800000   -0.00000000   -0.00000000 # (H)(SLT)(   0)[     2]
*

