! RHF 3-21G

# Title Card Required

* xyz 0 1
O                 -0.72186832   -0.54140127    0.00000000 # (H)(SVT)(   0)[     0]
H                  0.23813168   -0.54140127    0.00000000 # (H)(SVT)(   0)[     1]
H                 -1.04232291    0.36353457    0.00000000 # (H)(SVT)(   0)[     2]
*

