! RHF 3-21G

# Title Card Required

* xyz -1 1
O                 -0.72186832   -0.54140127    0.00000000 # (H)(CNT)(   0)[     0]
H                  0.23813168   -0.54140127    0.00000000 # (H)(CNT)(   0)[     1]
*

